(set-info :smt-lib-version 2.6)
(set-logic LRA)
(set-info :source |
   Monniaux, David; Quantifier Elimination by Lazy Model Enumeration, CAV 2010
|)
(set-info :category "random")
; ./Mjollnir_examples/B6/formula_015.m
(set-info :status unknown)
(assert
 (forall ((|v17:0| Real) )(forall ((|v16:1| Real) )(forall ((|v15:2| Real) )(forall ((|v14:3| Real) )(forall ((|v13:4| Real) )(forall ((|v12:5| Real) )(exists ((|v11:6| Real) )(exists ((|v10:7| Real) )(exists ((|v9:8| Real) )(exists ((|v8:9| Real) )(exists ((|v7:10| Real) )(exists ((|v6:11| Real) )(forall ((|v5:12| Real) )(forall ((|v4:13| Real) )(forall ((|v3:14| Real) )(forall ((|v2:15| Real) )(forall ((|v1:16| Real) )(forall ((|v0:17| Real) )(let ((?x104 2))
(let ((?x37 (- 7)))
(let ((?x49 (* ?x37 |v4:13|)))
(let ((?x74 (- 3)))
(let ((?x1323 (* ?x74 |v10:7|)))
(let ((?x78 (- 13)))
(let ((?x936 (* ?x78 |v12:5|)))
(let ((?x1568 (+ (+ (+ (* 0 |v15:2|) (* 0 |v11:6|)) ?x936) ?x1323)))
(let ((?x1573 (+ (+ (+ ?x1568 ?x49) (* (- 1) |v0:17|)) (* (- 14) |v6:11|))))
(let ((?x24 (- 8)))
(let ((?x34 (- 2)))
(let ((?x706 (* ?x34 |v12:5|)))
(let ((?x1559 (+ (+ (+ (* (- 5) |v4:13|) (* 15 |v16:1|)) ?x706) (* 16 |v17:0|))))
(let ((?x1564 (+ (+ (+ ?x1559 (* (- 18) |v13:4|)) (* (- 15) |v15:2|)) |v12:5|)))
(let ((?x214 14))
(let ((?x94 9))
(let ((?x865 (* ?x94 |v7:10|)))
(let ((?x1057 (* ?x94 |v6:11|)))
(let ((?x148 (- 12)))
(let ((?x787 (* ?x148 |v9:8|)))
(let ((?x45 12))
(let ((?x541 (* ?x45 |v15:2|)))
(let ((?x136 (- 11)))
(let ((?x1412 (* ?x136 |v8:9|)))
(let ((?x1552 (+ (+ (+ (+ (+ (* ?x104 |v12:5|) (* ?x136 |v4:13|)) ?x1412) ?x541) ?x787) ?x1057)))
(let ((?x107 18))
(let ((?x1419 (* ?x94 |v8:9|)))
(let ((?x87 20))
(let ((?x773 (* ?x87 |v7:10|)))
(let ((?x1540 (+ (+ (* 19 |v2:15|) (* ?x24 |v16:1|)) (* 17 |v17:0|))))
(let ((?x1546 (+ (+ (+ (+ ?x1540 ?x773) ?x1419) (* 17 |v11:6|)) (* ?x37 |v14:3|))))
(let (($x1576 (or (and (<= ?x1546 ?x107) (<= (+ ?x1552 ?x865) ?x214)) (and (<= ?x1564 ?x24) (<= ?x1573 ?x104)))))
(let ((?x14 (- 1)))
(let ((?x260 10))
(let ((?x796 (* ?x260 |v9:8|)))
(let ((?x57 (- 17)))
(let ((?x881 (* ?x57 |v11:6|)))
(let ((?x1530 (+ (+ (+ (* ?x136 |v16:1|) (* ?x24 |v15:2|)) ?x936) (* (- 4) |v3:14|))))
(let ((?x53 (- 16)))
(let ((?x1501 (* ?x148 |v10:7|)))
(let ((?x178 19))
(let ((?x594 (* ?x178 |v3:14|)))
(let ((?x98 16))
(let ((?x857 (* ?x98 |v3:14|)))
(let ((?x369 (* ?x98 |v7:10|)))
(let ((?x1520 (+ (+ (+ (* (- 14) |v7:10|) (* 17 |v7:10|)) ?x369) ?x857)))
(let ((?x140 0))
(let ((?x61 11))
(let ((?x771 (* ?x61 |v5:12|)))
(let ((?x29 (- 14)))
(let ((?x287 (* ?x29 |v13:4|)))
(let ((?x1184 (* ?x104 |v1:16|)))
(let ((?x537 (* ?x45 |v2:15|)))
(let ((?x1512 (+ (+ (+ (+ (* (- 4) |v15:2|) (* ?x148 |v4:13|)) |v3:14|) ?x537) ?x1184)))
(let (($x1526 (and (<= (+ (+ ?x1512 ?x287) ?x771) ?x140) (<= (+ (+ (+ ?x1520 ?x594) (* ?x78 |v0:17|)) ?x1501) ?x53))))
(let (($x1536 (or $x1526 (<= (+ (+ (+ ?x1530 ?x881) ?x796) (* 13 |v10:7|)) ?x14))))
(let ((?x564 (* ?x94 |v14:3|)))
(let ((?x101 (- 20)))
(let ((?x175 (* ?x101 |v7:10|)))
(let ((?x851 (* ?x29 |v9:8|)))
(let ((?x1502 (+ (+ (+ (+ (* ?x34 |v6:11|) (* ?x136 |v12:5|)) (* ?x148 |v11:6|)) ?x851) ?x1501)))
(let ((?x623 (* ?x214 |v2:15|)))
(let ((?x293 (* ?x74 |v7:10|)))
(let ((?x1492 (+ (+ (+ (+ ?x564 (* ?x61 |v3:14|)) |v0:17|) (* ?x61 |v12:5|)) (* (- 18) |v14:3|))))
(let (($x1506 (or (<= (+ (+ ?x1492 ?x293) ?x623) ?x140) (<= (+ (+ ?x1502 ?x175) ?x564) ?x94))))
(let ((?x145 (- 4)))
(let ((?x842 (* ?x145 |v1:16|)))
(let ((?x409 15))
(let ((?x1355 (* ?x409 |v9:8|)))
(let ((?x128 4))
(let ((?x156 (* ?x128 |v13:4|)))
(let ((?x1358 (* ?x78 |v13:4|)))
(let ((?x1481 (+ (+ (+ (* 3 |v14:3|) (* 7 |v12:5|)) ?x1358) ?x156)))
(let ((?x1132 (* ?x260 |v12:5|)))
(let ((?x195 5))
(let ((?x204 (* ?x195 |v5:12|)))
(let ((?x244 (* ?x136 |v4:13|)))
(let ((?x1474 (+ (+ (+ (* ?x24 |v12:5|) (* ?x195 |v3:14|)) (* (- 10) |v4:13|)) (* ?x148 |v3:14|))))
(let (($x1486 (and (<= (+ (+ (+ ?x1474 ?x244) ?x204) ?x1132) ?x107) (<= (+ (+ (+ ?x1481 ?x1355) ?x865) ?x842) ?x57))))
(let ((?x379 8))
(let ((?x1460 (+ (+ (+ (* ?x214 |v7:10|) (* ?x37 |v9:8|)) (* ?x140 |v5:12|)) (* ?x14 |v6:11|))))
(let ((?x1466 (+ (+ (+ ?x1460 (* 3 |v5:12|)) (* 6 |v11:6|)) (* ?x53 |v5:12|))))
(let ((?x415 (* ?x29 |v5:12|)))
(let ((?x1448 (+ (+ (+ (* ?x409 |v16:1|) (* 3 |v8:9|)) (* ?x61 |v10:7|)) (* ?x24 |v1:16|))))
(let ((?x133 (* ?x101 |v5:12|)))
(let ((?x524 (* ?x87 |v14:3|)))
(let ((?x66 13))
(let ((?x583 (* ?x66 |v16:1|)))
(let ((?x1437 (+ (+ (+ (* ?x29 |v14:3|) (* 6 |v4:13|)) (* ?x379 |v4:13|)) ?x583)))
(let (($x1455 (and (<= (+ (+ (+ ?x1437 ?x524) ?x133) (* ?x74 |v0:17|)) ?x178) (<= (+ (+ (+ ?x1448 ?x415) (* ?x45 |v13:4|)) (* ?x78 |v15:2|)) ?x61))))
(let ((?x376 (* ?x34 |v4:13|)))
(let ((?x809 (* ?x148 |v0:17|)))
(let ((?x1427 (+ (+ (+ (+ (* ?x214 |v13:4|) (* ?x29 |v0:17|)) (* ?x14 |v8:9|)) ?x809) (* 7 |v15:2|))))
(let ((?x401 (* ?x34 |v17:0|)))
(let ((?x10 (- 19)))
(let ((?x640 (* ?x10 |v12:5|)))
(let ((?x1416 (+ (+ (+ (* 6 |v13:4|) ?x1412) (* ?x104 |v6:11|)) (* ?x57 |v16:1|))))
(let (($x1431 (or (<= (+ (+ (+ ?x1416 ?x640) ?x401) ?x1419) ?x214) (<= (+ (+ ?x1427 ?x583) ?x376) ?x24))))
(let ((?x251 6))
(let ((?x215 (* ?x214 |v7:10|)))
(let ((?x1404 (+ (+ (+ (+ (* ?x53 |v4:13|) (* ?x379 |v17:0|)) (* ?x104 |v4:13|)) ?x215) |v7:10|)))
(let ((?x963 (* ?x74 |v6:11|)))
(let ((?x1074 (* ?x379 |v16:1|)))
(let ((?x1396 (+ (+ (+ (+ (* ?x104 |v14:3|) (* ?x87 |v13:4|)) ?x524) (* ?x24 |v5:12|)) ?x1074)))
(let (($x1410 (and (<= (+ (+ ?x1396 ?x963) (* (- 18) |v8:9|)) ?x107) (<= (+ (+ ?x1404 (* ?x10 |v13:4|)) (* ?x66 |v9:8|)) ?x251))))
(let ((?x159 3))
(let ((?x82 (- 9)))
(let ((?x816 (* ?x82 |v14:3|)))
(let ((?x811 (* ?x53 |v16:1|)))
(let ((?x298 (* ?x14 |v9:8|)))
(let ((?x1385 (+ (+ (+ (+ (* ?x104 |v15:2|) (* ?x57 |v9:8|)) (* ?x24 |v16:1|)) ?x298) ?x811)))
(let ((?x653 (* ?x195 |v9:8|)))
(let ((?x1216 (* ?x61 |v1:16|)))
(let ((?x239 (- 10)))
(let ((?x240 (* ?x239 |v8:9|)))
(let ((?x1377 (+ (+ (+ (+ (* ?x34 |v8:9|) (* ?x87 |v10:7|)) (* ?x260 |v10:7|)) ?x240) ?x1216)))
(let (($x1390 (or (<= (+ (+ ?x1377 ?x653) (* ?x66 |v8:9|)) ?x74) (<= (+ (+ ?x1385 (* ?x37 |v1:16|)) ?x816) ?x159))))
(let ((?x153 (- 18)))
(let ((?x21 (* ?x10 |v16:1|)))
(let ((?x1367 (* ?x37 |v9:8|)))
(let ((?x1369 (+ (+ (+ (+ (* 17 |v4:13|) ?x524) (* ?x260 |v13:4|)) ?x1367) ?x21)))
(let ((?x1290 (* ?x409 |v17:0|)))
(let ((?x1356 (+ (+ (+ (+ |v8:9| (* ?x24 |v16:1|)) (* ?x87 |v13:4|)) (* ?x82 |v16:1|)) ?x1355)))
(let ((?x1157 (* ?x45 |v4:13|)))
(let ((?x1345 (+ (+ (+ (+ (* ?x10 |v4:13|) (* ?x136 |v17:0|)) (* ?x409 |v2:15|)) ?x1157) (* ?x74 |v4:13|))))
(let (($x1361 (and (<= (+ (+ ?x1345 (* ?x98 |v15:2|)) ?x376) ?x145) (<= (+ (+ ?x1356 ?x1290) ?x1358) ?x136))))
(let ((?x1159 (* ?x214 |v11:6|)))
(let ((?x752 (* ?x148 |v12:5|)))
(let ((?x1269 (* ?x101 |v10:7|)))
(let ((?x1335 (+ (+ (+ (+ (* ?x251 |v3:14|) (* ?x14 |v7:10|)) (* ?x260 |v16:1|)) ?x1216) ?x1269)))
(let ((?x528 1))
(let ((?x173 (* ?x107 |v8:9|)))
(let ((?x1326 (+ (+ (+ (+ ?x787 (* ?x409 |v11:6|)) (* ?x53 |v15:2|)) ?x1323) (* ?x98 |v5:12|))))
(let (($x1339 (or (<= (+ (+ ?x1326 (* ?x101 |v8:9|)) ?x173) ?x528) (<= (+ (+ ?x1335 ?x752) ?x1159) ?x239))))
(let ((?x1312 (+ (+ (+ (+ (* (- 5) |v15:2|) ?x640) (* ?x29 |v15:2|)) ?x842) (* ?x34 |v13:4|))))
(let ((?x897 (* ?x53 |v6:11|)))
(let ((?x1301 (+ (+ (+ (+ (* ?x98 |v14:3|) (* ?x104 |v11:6|)) (* ?x379 |v1:16|)) ?x897) ?x175)))
(let (($x1318 (and (<= (+ (+ ?x1301 (* ?x239 |v16:1|)) ?x936) ?x136) (<= (+ (+ ?x1312 (* ?x104 |v2:15|)) (* ?x53 |v17:0|)) ?x145))))
(let ((?x164 (* ?x57 |v10:7|)))
(let ((?x1292 (+ (+ (+ (+ ?x842 (* ?x34 |v15:2|)) (* (- 15) |v13:4|)) ?x1290) ?x164)))
(let ((?x1283 (* ?x379 |v17:0|)))
(let ((?x1253 (* ?x195 |v17:0|)))
(let ((?x225 (* ?x14 |v8:9|)))
(let ((?x1282 (+ (+ (+ (+ (* ?x379 |v13:4|) (* ?x78 |v8:9|)) (* ?x34 |v0:17|)) ?x225) ?x1253)))
(let (($x1297 (and (<= (+ (+ ?x1282 ?x1283) (* ?x409 |v6:11|)) ?x107) (<= (+ (+ ?x1292 (* ?x148 |v5:12|)) |v16:1|) ?x128))))
(let (($x1434 (or (and (and $x1297 $x1318) (and $x1339 $x1361)) (or (and (<= (+ (+ ?x1369 ?x936) ?x244) ?x153) $x1390) (or $x1410 $x1431)))))
(let (($x1579 (and $x1434 (or (and (or $x1455 (<= ?x1466 ?x379)) (or $x1486 $x1506)) (and $x1536 $x1576)))))
(let ((?x509 (* ?x379 |v13:4|)))
(let ((?x1268 (+ (+ (+ (+ (* ?x101 |v17:0|) ?x215) (* (- 5) |v9:8|)) ?x857) (* ?x140 |v6:11|))))
(let ((?x69 (- 6)))
(let ((?x999 (* ?x69 |v7:10|)))
(let ((?x590 (* ?x57 |v12:5|)))
(let ((?x1258 (+ (+ (+ ?x1253 (* ?x153 |v7:10|)) (* (- 15) |v9:8|)) (* ?x107 |v16:1|))))
(let (($x1273 (or (<= (+ (+ (+ ?x1258 ?x590) (* 7 |v8:9|)) ?x999) ?x53) (<= (+ (+ ?x1268 ?x1269) ?x509) ?x128))))
(let ((?x917 (* ?x104 |v7:10|)))
(let ((?x566 (* ?x29 |v11:6|)))
(let ((?x368 (* ?x29 |v17:0|)))
(let ((?x1248 (+ (+ (+ (+ (* ?x10 |v4:13|) (* ?x37 |v12:5|)) (* ?x104 |v16:1|)) ?x368) ?x566)))
(let ((?x1238 (+ (+ (+ (+ (* ?x107 |v14:3|) ?x156) (* ?x239 |v6:11|)) (* ?x107 |v9:8|)) (* ?x178 |v9:8|))))
(let (($x1252 (and (<= (+ (+ ?x1238 (* ?x140 |v9:8|)) (* ?x145 |v14:3|)) ?x260) (<= (+ (+ ?x1248 |v0:17|) ?x917) ?x145))))
(let ((?x62 (* ?x61 |v16:1|)))
(let ((?x494 (* ?x214 |v15:2|)))
(let ((?x679 (* ?x409 |v10:7|)))
(let ((?x1226 (+ (+ (+ (* ?x178 |v16:1|) (* (- 15) |v16:1|)) (* ?x14 |v3:14|)) ?x679)))
(let ((?x577 (* ?x14 |v7:10|)))
(let ((?x1218 (+ (+ (+ (+ (* ?x37 |v8:9|) (* ?x104 |v9:8|)) (* ?x195 |v1:16|)) ?x1216) ?x577)))
(let (($x1231 (and (<= (+ (+ ?x1218 (* ?x107 |v1:16|)) ?x809) ?x153) (<= (+ (+ (+ ?x1226 ?x494) ?x62) ?x1157) ?x195))))
(let ((?x308 (* ?x107 |v3:14|)))
(let ((?x312 (- 5)))
(let ((?x313 (* ?x312 |v17:0|)))
(let ((?x984 (* ?x140 |v12:5|)))
(let ((?x912 (* ?x69 |v12:5|)))
(let ((?x1207 (+ (+ (+ (+ (* ?x87 |v2:15|) (* ?x87 |v3:14|)) (* ?x239 |v15:2|)) ?x912) ?x984)))
(let ((?x210 17))
(let ((?x371 (* ?x66 |v0:17|)))
(let ((?x42 7))
(let ((?x43 (* ?x42 |v11:6|)))
(let ((?x1198 (+ (+ (+ (+ |v10:7| (* ?x251 |v7:10|)) (* ?x87 |v17:0|)) (* ?x82 |v4:13|)) ?x43)))
(let (($x1211 (and (<= (+ (+ ?x1198 ?x371) (* ?x210 |v2:15|)) ?x210) (<= (+ (+ ?x1207 ?x313) ?x308) ?x260))))
(let ((?x18 (* ?x14 |v1:16|)))
(let ((?x242 (* ?x29 |v8:9|)))
(let ((?x1183 (+ (+ (+ (+ (* ?x195 |v15:2|) (* ?x312 |v5:12|)) (* ?x24 |v13:4|)) ?x242) ?x18)))
(let ((?x186 (* ?x34 |v9:8|)))
(let ((?x170 (- 15)))
(let ((?x946 (* ?x170 |v14:3|)))
(let ((?x1137 (* ?x153 |v6:11|)))
(let ((?x1173 (+ (+ (+ (+ ?x583 (* ?x34 |v0:17|)) (* ?x210 |v4:13|)) (* ?x37 |v17:0|)) ?x1137)))
(let (($x1189 (and (<= (+ (+ ?x1173 ?x946) ?x186) ?x94) (<= (+ (+ ?x1183 ?x1184) (* ?x145 |v17:0|)) ?x145))))
(let ((?x1087 (* ?x148 |v14:3|)))
(let ((?x171 (* ?x170 |v1:16|)))
(let ((?x1163 (+ (+ (+ (+ (+ (* ?x45 |v14:3|) ?x1157) ?x1159) (* ?x94 |v2:15|)) ?x171) ?x1087)))
(let ((?x1154 (* ?x210 |v4:13|)))
(let ((?x581 (* ?x42 |v10:7|)))
(let ((?x267 (* ?x140 |v7:10|)))
(let ((?x1152 (+ (+ (+ (+ (* ?x45 |v3:14|) (* ?x159 |v7:10|)) (* ?x239 |v1:16|)) ?x267) ?x581)))
(let (($x1167 (or (<= (+ (+ ?x1152 ?x164) ?x1154) ?x37) (<= (+ ?x1163 (* ?x53 |v1:16|)) ?x379))))
(let ((?x648 (* ?x170 |v11:6|)))
(let ((?x1013 (* ?x145 |v15:2|)))
(let ((?x704 (* ?x14 |v16:1|)))
(let ((?x1142 (+ (+ (+ (+ ?x1137 (* ?x98 |v16:1|)) (* ?x69 |v4:13|)) (* ?x239 |v17:0|)) ?x704)))
(let ((?x67 (* ?x66 |v7:10|)))
(let ((?x1133 (+ (+ (+ (+ (+ ?x186 ?x67) (* ?x101 |v13:4|)) (* ?x251 |v14:3|)) ?x67) ?x1132)))
(let (($x1146 (and (<= (+ ?x1133 (* ?x78 |v11:6|)) ?x312) (<= (+ (+ ?x1142 ?x1013) ?x648) ?x66))))
(let ((?x15 (* ?x14 |v13:4|)))
(let ((?x1123 (+ (+ (+ (+ (* ?x148 |v4:13|) (* ?x78 |v5:12|)) (* ?x29 |v16:1|)) ?x67) (* ?x136 |v3:14|))))
(let ((?x789 (* ?x98 |v12:5|)))
(let ((?x246 (* ?x195 |v4:13|)))
(let ((?x1114 (+ (+ (+ (+ (* ?x94 |v10:7|) (* ?x214 |v13:4|)) (* ?x128 |v15:2|)) ?x246) ?x752)))
(let (($x1127 (or (<= (+ (+ ?x1114 (* ?x145 |v16:1|)) ?x789) ?x195) (<= (+ (+ ?x1123 ?x564) ?x15) ?x136))))
(let (($x1276 (and (or (or $x1127 $x1146) (or $x1167 $x1189)) (or (and $x1211 $x1231) (and $x1252 $x1273)))))
(let ((?x1099 (+ (+ (+ (* ?x94 |v16:1|) (* ?x66 |v14:3|)) (* ?x409 |v8:9|)) (* ?x312 |v11:6|))))
(let (($x1106 (<= (+ (+ (+ ?x1099 (* ?x66 |v12:5|)) (* ?x409 |v7:10|)) (* ?x94 |v9:8|)) ?x195)))
(let ((?x979 (* ?x195 |v6:11|)))
(let ((?x1091 (* ?x94 |v16:1|)))
(let ((?x1089 (* ?x104 |v15:2|)))
(let ((?x1090 (+ (+ (+ (+ (* ?x128 |v11:6|) (* ?x170 |v4:13|)) (* ?x140 |v11:6|)) ?x1087) ?x1089)))
(let ((?x316 (* ?x153 |v4:13|)))
(let ((?x1077 (+ (+ (+ (+ (* ?x61 |v15:2|) (* ?x140 |v15:2|)) (* ?x170 |v2:15|)) ?x1074) (* ?x178 |v12:5|))))
(let ((?x1064 (* ?x195 |v3:14|)))
(let ((?x321 (* ?x145 |v2:15|)))
(let ((?x1063 (+ (+ (+ (+ ?x1057 (* ?x195 |v14:3|)) (* ?x29 |v3:14|)) (* ?x42 |v7:10|)) ?x321)))
(let (($x1082 (or (<= (+ (+ ?x1063 ?x1064) (* ?x210 |v15:2|)) ?x29) (<= (+ (+ ?x1077 (* ?x24 |v2:15|)) ?x316) ?x34))))
(let ((?x803 (* ?x53 |v12:5|)))
(let ((?x736 (* ?x42 |v0:17|)))
(let ((?x1051 (+ (+ (+ (+ ?x566 (* ?x148 |v4:13|)) (* ?x10 |v1:16|)) (* ?x42 |v14:3|)) ?x736)))
(let ((?x423 (* ?x409 |v14:3|)))
(let ((?x374 (* ?x251 |v3:14|)))
(let ((?x1042 (+ (+ (+ (* ?x153 |v15:2|) (* ?x178 |v0:17|)) (* ?x61 |v12:5|)) (* ?x78 |v14:3|))))
(let (($x1055 (and (<= (+ (+ (+ ?x1042 ?x374) ?x423) ?x293) ?x159) (<= (+ (+ ?x1051 ?x204) ?x803) ?x24))))
(let ((?x1031 (+ (+ (+ (+ (* ?x94 |v10:7|) (* ?x82 |v3:14|)) ?x244) (* ?x107 |v12:5|)) (* ?x74 |v17:0|))))
(let ((?x405 (* ?x29 |v2:15|)))
(let ((?x1021 (+ (+ (+ (+ ?x1013 (* ?x104 |v12:5|)) (* ?x260 |v3:14|)) (* ?x145 |v6:11|)) (* ?x82 |v15:2|))))
(let (($x1037 (or (<= (+ (+ ?x1021 ?x405) (* ?x107 |v10:7|)) ?x178) (<= (+ (+ ?x1031 (* ?x107 |v11:6|)) (* ?x87 |v12:5|)) ?x34))))
(let (($x1109 (and (or $x1037 $x1055) (and $x1082 (or (<= (+ (+ ?x1090 ?x1091) ?x979) ?x379) $x1106)))))
(let ((?x1004 (+ (+ (+ (+ (* ?x66 |v11:6|) (* ?x24 |v10:7|)) ?x999) (* ?x148 |v17:0|)) (* ?x98 |v10:7|))))
(let ((?x160 (* ?x159 |v2:15|)))
(let ((?x893 (* ?x57 |v13:4|)))
(let ((?x844 (* ?x45 |v3:14|)))
(let ((?x994 (+ (+ (+ (+ ?x246 (* ?x78 |v10:7|)) (* ?x61 |v14:3|)) (* ?x24 |v6:11|)) ?x844)))
(let (($x1010 (and (<= (+ (+ ?x994 ?x893) ?x160) ?x74) (<= (+ (+ ?x1004 (* ?x94 |v12:5|)) (* ?x210 |v8:9|)) ?x29))))
(let ((?x658 (* ?x101 |v16:1|)))
(let ((?x985 (+ (+ (+ (+ (+ (* ?x42 |v4:13|) ?x979) (* ?x14 |v10:7|)) ?x225) ?x658) ?x984)))
(let ((?x484 (* ?x87 |v2:15|)))
(let ((?x539 (* ?x61 |v9:8|)))
(let ((?x976 (+ (+ (+ (+ (+ ?x244 (* ?x170 |v16:1|)) ?x704) (* ?x128 |v11:6|)) ?x539) (* ?x53 |v2:15|))))
(let (($x1011 (or (and (<= (+ ?x976 ?x484) ?x61) (<= (+ ?x985 (* ?x145 |v12:5|)) ?x87)) $x1010)))
(let ((?x867 (* ?x10 |v1:16|)))
(let ((?x965 (+ (+ (+ (+ (+ (* ?x128 |v15:2|) (* ?x260 |v6:11|)) ?x936) |v10:7|) ?x963) ?x15)))
(let ((?x915 (* ?x159 |v9:8|)))
(let ((?x953 (+ (+ (+ (+ (* ?x159 |v7:10|) ?x946) (* ?x101 |v15:2|)) (* ?x251 |v0:17|)) (* ?x82 |v12:5|))))
(let ((?x253 (* ?x57 |v2:15|)))
(let ((?x385 (* ?x10 |v8:9|)))
(let ((?x356 (* ?x29 |v1:16|)))
(let ((?x941 (+ (+ (+ (+ (* ?x57 |v15:2|) ?x936) (* ?x312 |v6:11|)) (* ?x57 |v6:11|)) ?x356)))
(let (($x958 (or (<= (+ (+ ?x941 ?x385) ?x253) ?x153) (<= (+ (+ ?x953 (* ?x98 |v9:8|)) ?x915) ?x528))))
(let (($x1580 (and (and (and (or (and $x958 (<= (+ ?x965 ?x867) ?x528)) $x1011) $x1109) $x1276) $x1579)))
(let ((?x750 (* ?x74 |v8:9|)))
(let ((?x926 (* ?x82 |v3:14|)))
(let ((?x925 (+ (+ (+ (+ (* ?x101 |v12:5|) (* ?x42 |v3:14|)) ?x215) (* ?x82 |v8:9|)) (* ?x10 |v7:10|))))
(let ((?x444 (* ?x210 |v0:17|)))
(let ((?x916 (+ (+ (+ (+ (* ?x94 |v13:4|) (* ?x98 |v14:3|)) ?x912) (* ?x53 |v0:17|)) ?x915)))
(let (($x930 (and (<= (+ (+ ?x916 ?x917) ?x444) ?x178) (<= (+ (+ ?x925 ?x926) ?x750) ?x178))))
(let ((?x847 (* ?x260 |v1:16|)))
(let ((?x902 (* ?x57 |v15:2|)))
(let ((?x905 (+ (+ (+ (+ (+ ?x897 ?x164) (* ?x42 |v2:15|)) (* ?x98 |v11:6|)) ?x902) (* ?x24 |v11:6|))))
(let ((?x305 (* ?x239 |v11:6|)))
(let ((?x894 (+ (+ (+ (+ (+ (* ?x37 |v12:5|) (* ?x104 |v11:6|)) ?x566) |v0:17|) ?x305) ?x893)))
(let ((?x277 (* ?x61 |v7:10|)))
(let ((?x879 (* ?x251 |v14:3|)))
(let ((?x882 (+ (+ (+ (+ (+ ?x186 ?x583) (* ?x312 |v4:13|)) (* ?x312 |v9:8|)) ?x879) ?x881)))
(let ((?x585 (* ?x87 |v3:14|)))
(let ((?x873 (+ (+ (+ (+ (+ ?x865 ?x67) ?x867) (* ?x42 |v5:12|)) ?x484) (* ?x239 |v3:14|))))
(let ((?x858 (+ (+ (+ (+ (* ?x312 |v10:7|) ?x851) (* ?x128 |v14:3|)) (* ?x239 |v12:5|)) ?x857)))
(let ((?x515 (* ?x42 |v3:14|)))
(let ((?x845 (+ (+ (+ (+ (* ?x214 |v9:8|) (* ?x87 |v1:16|)) (* ?x107 |v0:17|)) ?x842) ?x844)))
(let (($x864 (and (<= (+ (+ ?x845 ?x515) ?x847) ?x101) (<= (+ (+ ?x858 (* ?x42 |v1:16|)) (* ?x74 |v3:14|)) ?x94))))
(let (($x932 (or (or $x864 (or (<= (+ ?x873 ?x585) ?x66) (<= (+ ?x882 ?x277) ?x251))) (and (or (<= (+ ?x894 ?x225) ?x101) (<= (+ ?x905 ?x847) ?x528)) $x930))))
(let ((?x827 (* ?x104 |v16:1|)))
(let ((?x826 (+ (+ (+ (* ?x239 |v6:11|) (* ?x74 |v1:16|)) (* ?x104 |v10:7|)) (* ?x145 |v0:17|))))
(let ((?x323 (* ?x214 |v16:1|)))
(let ((?x814 (* ?x379 |v1:16|)))
(let ((?x817 (+ (+ (+ (+ (+ (* ?x82 |v16:1|) ?x809) ?x811) (* ?x214 |v10:7|)) ?x814) ?x816)))
(let (($x834 (or (<= (+ ?x817 ?x323) ?x140) (<= (+ (+ (+ ?x826 ?x827) (* ?x153 |v9:8|)) (* ?x87 |v15:2|)) ?x53))))
(let ((?x805 (* ?x94 |v10:7|)))
(let ((?x410 (* ?x409 |v2:15|)))
(let ((?x804 (+ (+ (+ (+ (+ ?x173 ?x796) (* ?x409 |v11:6|)) (* ?x66 |v3:14|)) ?x410) ?x803)))
(let ((?x162 (* ?x61 |v17:0|)))
(let ((?x120 (* ?x78 |v10:7|)))
(let ((?x793 (+ (+ (+ (+ (+ (* ?x136 |v6:11|) ?x577) ?x787) ?x789) (* ?x37 |v0:17|)) ?x120)))
(let ((?x778 (* ?x312 |v4:13|)))
(let ((?x779 (+ (+ (+ (+ (+ ?x771 (* ?x34 |v8:9|)) ?x773) (* ?x101 |v6:11|)) ?x240) ?x778)))
(let ((?x275 (* ?x101 |v13:4|)))
(let ((?x729 (* ?x379 |v11:6|)))
(let ((?x766 (+ (+ (+ (+ (* ?x379 |v4:13|) (* ?x239 |v5:12|)) (* ?x69 |v10:7|)) ?x244) ?x729)))
(let (($x783 (or (<= (+ (+ ?x766 (* ?x24 |v7:10|)) ?x275) ?x53) (<= (+ ?x779 (* ?x53 |v8:9|)) ?x104))))
(let ((?x601 (* ?x140 |v10:7|)))
(let ((?x756 (+ (+ (+ (+ (+ ?x323 (* ?x37 |v15:2|)) ?x750) ?x752) (* ?x94 |v0:17|)) |v16:1|)))
(let ((?x742 (+ (+ (+ (+ ?x736 (* ?x379 |v2:15|)) (* ?x34 |v15:2|)) (* ?x153 |v11:6|)) (* ?x57 |v5:12|))))
(let (($x759 (and (<= (+ (+ ?x742 (* ?x251 |v6:11|)) (* ?x74 |v16:1|)) ?x24) (<= (+ ?x756 ?x601) ?x128))))
(let (($x836 (and (and $x759 $x783) (or (or (<= (+ ?x793 ?x162) ?x210) (<= (+ ?x804 ?x805) ?x82)) $x834))))
(let ((?x217 (* ?x128 |v16:1|)))
(let ((?x725 (+ (+ (+ (* ?x178 |v7:10|) (* ?x87 |v10:7|)) (* ?x42 |v12:5|)) (* ?x153 |v0:17|))))
(let ((?x713 (* ?x159 |v8:9|)))
(let ((?x716 (+ (+ (+ (+ (* ?x82 |v1:16|) (* ?x57 |v6:11|)) (* ?x45 |v0:17|)) ?x713) (* ?x260 |v5:12|))))
(let (($x732 (or (<= (+ (+ ?x716 (* ?x251 |v9:8|)) ?x321) ?x528) (<= (+ (+ (+ ?x725 ?x217) (* ?x37 |v10:7|)) ?x729) ?x251))))
(let ((?x701 (+ (+ (+ (* ?x312 |v16:1|) (* ?x195 |v8:9|)) (* ?x14 |v10:7|)) (* ?x14 |v2:15|))))
(let ((?x420 (* ?x42 |v12:5|)))
(let ((?x691 (* ?x214 |v13:4|)))
(let ((?x108 (* ?x107 |v6:11|)))
(let ((?x689 (+ (+ (+ (* ?x140 |v2:15|) (* ?x57 |v9:8|)) (* ?x101 |v14:3|)) (* ?x128 |v1:16|))))
(let (($x709 (or (<= (+ (+ (+ ?x689 ?x108) ?x691) ?x420) ?x69) (<= (+ (+ (+ ?x701 (* ?x136 |v2:15|)) ?x704) ?x706) ?x104))))
(let ((?x675 (+ (+ (+ (* ?x94 |v11:6|) (* ?x53 |v14:3|)) (* ?x260 |v0:17|)) (* ?x170 |v5:12|))))
(let ((?x475 (* ?x260 |v15:2|)))
(let ((?x198 (* ?x14 |v5:12|)))
(let ((?x319 (* ?x10 |v9:8|)))
(let ((?x665 (+ (+ (+ (+ ?x658 (* ?x178 |v14:3|)) (* ?x69 |v8:9|)) (* ?x195 |v14:3|)) ?x319)))
(let (($x682 (and (<= (+ (+ ?x665 ?x198) ?x475) ?x195) (<= (+ (+ (+ ?x675 (* ?x104 |v13:4|)) ?x164) ?x679) ?x82))))
(let ((?x535 (* ?x251 |v10:7|)))
(let ((?x654 (+ (+ (+ (+ (+ (* ?x87 |v6:11|) ?x648) |v16:1|) (* ?x74 |v13:4|)) ?x535) ?x653)))
(let ((?x480 (* ?x239 |v2:15|)))
(let ((?x638 (+ (+ (+ (* ?x128 |v2:15|) (* ?x379 |v3:14|)) (* ?x107 |v5:12|)) (* ?x178 |v6:11|))))
(let ((?x432 (* ?x140 |v16:1|)))
(let ((?x105 (* ?x104 |v4:13|)))
(let ((?x629 (+ (+ (+ (+ (+ ?x623 (* ?x379 |v5:12|)) (* ?x195 |v11:6|)) ?x244) ?x105) (* ?x153 |v17:0|))))
(let (($x645 (or (<= (+ ?x629 ?x432) ?x409) (<= (+ (+ (+ ?x638 ?x480) ?x640) (* ?x37 |v13:4|)) ?x34))))
(let ((?x386 (* ?x14 |v15:2|)))
(let ((?x615 (* ?x61 |v12:5|)))
(let ((?x618 (+ (+ (+ (+ (* ?x82 |v11:6|) (* ?x42 |v4:13|)) (* ?x101 |v17:0|)) ?x615) (* ?x128 |v6:11|))))
(let ((?x223 (* ?x136 |v9:8|)))
(let ((?x607 (+ (+ (+ (+ (+ ?x601 (* ?x178 |v15:2|)) ?x160) (* ?x37 |v2:15|)) ?x223) ?x67)))
(let (($x622 (and (<= (+ ?x607 (* ?x145 |v7:10|)) ?x528) (<= (+ (+ ?x618 |v16:1|) ?x386) ?x24))))
(let ((?x467 (* ?x260 |v8:9|)))
(let ((?x303 (* ?x153 |v5:12|)))
(let ((?x596 (+ (+ (+ (+ (+ ?x484 (* ?x42 |v9:8|)) ?x590) (* ?x170 |v9:8|)) ?x594) ?x303)))
(let ((?x584 (+ (+ (+ (+ (+ (* ?x10 |v10:7|) ?x386) ?x577) (* ?x214 |v0:17|)) ?x581) ?x583)))
(let ((?x569 (* ?x82 |v11:6|)))
(let ((?x265 (* ?x61 |v13:4|)))
(let ((?x570 (+ (+ (+ (+ (+ (* ?x239 |v17:0|) (* ?x379 |v0:17|)) ?x564) ?x566) ?x265) ?x569)))
(let ((?x555 (+ (+ (+ (+ ?x371 (* ?x128 |v3:14|)) (* ?x42 |v14:3|)) (* ?x128 |v15:2|)) ?x444)))
(let (($x574 (and (<= (+ (+ ?x555 (* ?x69 |v0:17|)) (* ?x170 |v0:17|)) ?x178) (<= (+ ?x570 (* ?x82 |v7:10|)) ?x178))))
(let (($x647 (and (or $x574 (or (<= (+ ?x584 ?x585) ?x148) (<= (+ ?x596 ?x467) ?x128))) (or $x622 $x645))))
(let (($x735 (and $x647 (and (or (<= (+ ?x654 (* ?x82 |v5:12|)) ?x61) $x682) (and $x709 $x732)))))
(let ((?x538 (+ (+ (+ (+ (* ?x178 |v16:1|) (* ?x45 |v14:3|)) (* ?x128 |v5:12|)) ?x535) ?x537)))
(let ((?x526 (* ?x379 |v5:12|)))
(let ((?x523 (+ (+ (+ (+ ?x515 (* ?x57 |v4:13|)) (* ?x57 |v7:10|)) (* ?x159 |v14:3|)) (* ?x214 |v4:13|))))
(let (($x544 (and (<= (+ (+ ?x523 ?x524) ?x526) ?x528) (<= (+ (+ ?x538 ?x539) ?x541) ?x312))))
(let ((?x508 (+ (+ (+ (+ ?x313 (* ?x98 |v16:1|)) (* ?x37 |v3:14|)) (* ?x74 |v9:8|)) ?x15)))
(let ((?x237 (* ?x214 |v10:7|)))
(let ((?x499 (+ (+ (+ (+ (* ?x195 |v12:5|) ?x494) (* ?x78 |v1:16|)) (* ?x82 |v16:1|)) ?x321)))
(let (($x513 (and (<= (+ (+ ?x499 ?x171) ?x237) ?x210) (<= (+ (+ ?x508 ?x509) ?x21) ?x170))))
(let ((?x488 (+ (+ (+ (+ (+ ?x480 (* ?x66 |v4:13|)) (* ?x210 |v14:3|)) ?x484) ?x162) (* ?x251 |v16:1|))))
(let ((?x474 (+ (+ (+ (+ (* ?x409 |v4:13|) ?x467) (* ?x78 |v5:12|)) (* ?x312 |v9:8|)) (* ?x82 |v10:7|))))
(let (($x491 (and (<= (+ (+ ?x474 ?x475) (* ?x104 |v8:9|)) ?x145) (<= (+ ?x488 |v15:2|) ?x239))))
(let ((?x460 (* ?x66 |v11:6|)))
(let ((?x299 (* ?x82 |v8:9|)))
(let ((?x459 (+ (+ (+ (+ (* ?x24 |v10:7|) (* ?x10 |v2:15|)) (* ?x45 |v5:12|)) ?x299) (* ?x69 |v6:11|))))
(let ((?x272 (* ?x128 |v17:0|)))
(let ((?x446 (+ (+ (+ (+ (* ?x409 |v1:16|) (* ?x66 |v4:13|)) (* ?x57 |v3:14|)) ?x444) ?x272)))
(let (($x465 (or (<= (+ (+ ?x446 (* ?x10 |v6:11|)) (* ?x45 |v9:8|)) ?x37) (<= (+ (+ ?x459 ?x460) (* ?x104 |v3:14|)) ?x104))))
(let ((?x335 (* ?x210 |v10:7|)))
(let ((?x431 (+ (+ (+ (+ (* ?x145 |v8:9|) (* ?x101 |v12:5|)) (* ?x136 |v11:6|)) ?x335) |v7:10|)))
(let ((?x422 (+ (+ (+ (+ (+ (* ?x66 |v17:0|) ?x415) (* ?x409 |v0:17|)) ?x386) ?x420) |v0:17|)))
(let (($x437 (and (<= (+ ?x422 ?x423) ?x66) (<= (+ (+ ?x431 ?x432) (* ?x239 |v7:10|)) ?x170))))
(let ((?x111 (* ?x14 |v17:0|)))
(let ((?x406 (+ (+ (+ (+ (* ?x178 |v17:0|) (* ?x29 |v14:3|)) ?x401) (* ?x98 |v11:6|)) ?x405)))
(let ((?x58 (* ?x57 |v0:17|)))
(let ((?x392 (* ?x57 |v9:8|)))
(let ((?x394 (+ (+ (+ (+ (+ ?x385 ?x386) (* ?x251 |v4:13|)) (* ?x140 |v13:4|)) ?x392) ?x58)))
(let (($x413 (and (<= (+ ?x394 (* ?x251 |v5:12|)) ?x29) (<= (+ (+ ?x406 ?x111) ?x410) ?x148))))
(let ((?x381 (+ (+ (+ (+ (+ (+ ?x368 ?x369) ?x371) (* ?x10 |v5:12|)) ?x374) ?x376) (* ?x379 |v14:3|))))
(let ((?x365 (* ?x87 |v10:7|)))
(let ((?x363 (* ?x195 |v11:6|)))
(let ((?x364 (+ (+ (+ (+ (+ ?x356 ?x293) |v0:17|) (* ?x87 |v16:1|)) (* ?x210 |v13:4|)) ?x363)))
(let ((?x352 (* ?x53 |v4:13|)))
(let ((?x349 (+ (+ (+ (+ (* ?x34 |v14:3|) (* ?x29 |v16:1|)) ?x319) (* ?x24 |v17:0|)) (* ?x159 |v17:0|))))
(let ((?x339 (* ?x74 |v9:8|)))
(let ((?x336 (+ (+ (+ (+ (* ?x312 |v2:15|) ?x267) (* ?x57 |v3:14|)) (* ?x260 |v14:3|)) ?x335)))
(let (($x355 (and (<= (+ (+ ?x336 (* ?x136 |v1:16|)) ?x339) ?x210) (<= (+ (+ ?x349 (* ?x87 |v8:9|)) ?x352) ?x98))))
(let (($x439 (or (and $x355 (or (<= (+ ?x364 ?x365) ?x53) (<= ?x381 ?x29))) (or $x413 $x437))))
(let ((?x324 (+ (+ (+ (+ (+ (+ ?x313 (* ?x61 |v14:3|)) ?x316) ?x299) ?x319) ?x321) ?x323)))
(let ((?x99 (* ?x98 |v2:15|)))
(let ((?x309 (+ (+ (+ (+ (+ (+ ?x298 ?x299) (* ?x45 |v6:11|)) ?x303) ?x305) ?x99) ?x308)))
(let ((?x292 (+ (+ (+ (+ |v3:14| (* ?x260 |v7:10|)) ?x287) (* ?x82 |v2:15|)) (* ?x148 |v2:15|))))
(let ((?x281 (* ?x136 |v12:5|)))
(let ((?x282 (+ (+ (+ (+ (+ ?x272 (* ?x170 |v13:4|)) ?x275) ?x277) (* ?x107 |v2:15|)) ?x281)))
(let (($x327 (and (and (<= (+ ?x282 ?x240) ?x107) (<= (+ (+ ?x292 ?x293) ?x175) ?x140)) (and (<= ?x309 ?x78) (<= ?x324 ?x74)))))
(let ((?x263 (* ?x178 |v15:2|)))
(let ((?x264 (+ (+ (+ (+ ?x253 (* ?x94 |v3:14|)) (* ?x104 |v6:11|)) (* ?x260 |v14:3|)) ?x263)))
(let ((?x249 (* ?x78 |v1:16|)))
(let ((?x250 (+ (+ (+ (+ (+ (+ ?x237 ?x240) ?x242) ?x244) ?x246) (* ?x87 |v6:11|)) ?x249)))
(let ((?x232 (* ?x145 |v8:9|)))
(let ((?x179 (* ?x178 |v5:12|)))
(let ((?x230 (+ (+ (+ (+ (* ?x94 |v15:2|) ?x223) ?x225) (* ?x82 |v1:16|)) (* ?x153 |v16:1|))))
(let ((?x219 (* ?x24 |v15:2|)))
(let ((?x216 (+ (+ (+ (+ ?x204 (* ?x145 |v10:7|)) (* ?x153 |v11:6|)) (* ?x210 |v5:12|)) ?x215)))
(let (($x235 (or (<= (+ (+ ?x216 ?x217) ?x219) ?x34) (<= (+ (+ ?x230 ?x179) ?x232) ?x78))))
(let (($x328 (or (and $x235 (and (<= ?x250 ?x251) (<= (+ (+ ?x264 ?x265) ?x267) ?x195))) $x327)))
(let ((?x193 (+ (+ (+ (+ ?x186 (* ?x45 |v12:5|)) (* ?x87 |v11:6|)) (* ?x34 |v8:9|)) (* ?x159 |v13:4|))))
(let ((?x181 (* ?x136 |v16:1|)))
(let ((?x184 (+ (+ (+ (+ (+ (+ (* ?x34 |v15:2|) ?x171) ?x173) ?x175) ?x179) ?x181) (* ?x29 |v4:13|))))
(let ((?x163 (+ (+ (+ (+ (+ (* ?x148 |v1:16|) |v5:12|) (* ?x153 |v15:2|)) ?x156) ?x160) ?x162)))
(let ((?x143 (* ?x37 |v8:9|)))
(let ((?x138 (+ (+ (+ (+ (* ?x45 |v0:17|) (* ?x128 |v10:7|)) (* ?x107 |v9:8|)) ?x133) (* ?x136 |v13:4|))))
(let (($x167 (or (<= (+ (+ ?x138 (* ?x140 |v1:16|)) ?x143) ?x145) (<= (+ ?x163 ?x164) ?x45))))
(let (($x202 (or $x167 (or (<= ?x184 ?x74) (<= (+ (+ ?x193 (* ?x195 |v16:1|)) ?x198) ?x98)))))
(let ((?x118 (+ (+ (+ (+ (+ ?x105 ?x108) ?x111) (* ?x69 |v17:0|)) (* ?x29 |v12:5|)) (* ?x57 |v8:9|))))
(let ((?x95 (* ?x94 |v2:15|)))
(let ((?x91 (* ?x66 |v14:3|)))
(let ((?x88 (* ?x87 |v6:11|)))
(let ((?x92 (+ (+ (+ (+ (* ?x74 |v13:4|) (* ?x78 |v9:8|)) (* ?x82 |v0:17|)) ?x88) ?x91)))
(let ((?x63 (+ (+ (+ (+ (+ ?x43 (* ?x45 |v12:5|)) ?x49) (* ?x53 |v0:17|)) ?x58) ?x62)))
(let ((?x30 (* ?x29 |v12:5|)))
(let ((?x31 (+ (+ (+ (+ (+ (* ?x10 |v5:12|) ?x15) ?x18) ?x21) (* ?x24 |v5:12|)) ?x30)))
(let (($x124 (or (and (<= (+ ?x31 (* ?x34 |v2:15|)) ?x37) (<= (+ ?x63 ?x67) ?x69)) (or (<= (+ (+ ?x92 ?x95) ?x99) ?x101) (<= (+ ?x118 ?x120) ?x37)))))
(let (($x548 (and (or (or $x124 $x202) $x328) (or $x439 (or (and $x465 $x491) (and $x513 $x544))))))
(or (or $x548 (or $x735 (or $x836 $x932))) $x1580)))))))))))))))))))))))))))))))))))))))))))))))))))))))))))))))))))))))))))))))))))))))))))))))))))))))))))))))))))))))))))))))))))))))))))))))))))))))))))))))))))))))))))))))))))))))))))))))))))))))))))))))))))))))))))))))))))))))))))))))))))))))))))))))))))))))))))))))))))))))))))))))))))))))))))))))))))))))))))))))))))))))))))))))))))))))))))))))))))))))))))))))))))))))))))))))))))))))))))))))))))))))))))))))))
)
)
)
)
)
)
)
)
)
)
)
)
)
)
)
)
)
)
(check-sat)
(exit)

